10
20
1012
867
780
648
542
403
395
321
191
163
72	472
206	606
270	670
288	688
302	702
424	824
761	1161
852	1252
915	1315
978	1378
110	510
191	591
252	652
563	963
604	1004
635	1035
660	1060
722	1122
867	1267
982	1382
